c turning on binary mode checking
c parsing input formula with 5000 variables and 21250 clauses
c finished parsing, read 76420272 bytes from proof file
c detected empty clause; start verification via backward checking
c 17881 of 21250 clauses in core                            
c 739734 of 1536547 lemmas in core using 40490346 resolution steps
c 0 RAT lemmas in core; 241476 redundant literals in core lemmas
s VERIFIED
c verification time: 124.187 seconds
